2 6 16 18 5 12 17 8 9 15 3 7 1 19 10 4 0 14 11 13  
2 6 16 18 5 12 17 8 9 15 3 7 4 10 14 19 13 1 0 11  
6 2 16 18 5 12 17 8 9 15 3 7 1 10 4 14 0 11 19 13  
2 6 8 5 12 16 3 17 0 19 10 13 1 4 14 15 18 7 11 9  
2 6 16 18 5 12 3 11 1 4 8 9 19 10 14 7 17 0 15 13  
6 2 16 18 5 12 3 11 1 4 8 9 10 15 14 7 17 0 19 13  
6 2 16 18 5 12 17 8 9 15 3 7 1 19 10 13 4 14 0 11  
2 6 16 18 5 12 17 8 9 15 3 7 4 10 14 19 13 1 0 11  
